unknown
(model
; cardinality of BoundSet is 2
(declare-sort BoundSet 0)
; rep: @uc_BoundSet_0
; rep: @uc_BoundSet_1
; cardinality of UnboundSet is 1
(declare-sort UnboundSet 0)
(declare-fun groundTerm_3 () UnboundSet)
(define-fun IsYoung ((BOUND_VARIABLE_411 BoundSet)) Bool true)
(define-fun IsInGym ((BOUND_VARIABLE_411 BoundSet)) Bool true)
(define-fun TakesTurnsScoring ((BOUND_VARIABLE_418 BoundSet) (BOUND_VARIABLE_419 BoundSet)) Bool true)
(define-fun IsIndoors ((BOUND_VARIABLE_411 BoundSet)) Bool false)
)
sat
(model
; cardinality of BoundSet is 1
(declare-sort BoundSet 0)
; rep: @uc_BoundSet_0
; cardinality of UnboundSet is 1
(declare-sort UnboundSet 0)
(declare-fun groundTerm_5 () UnboundSet)
(define-fun IsYoung ((BOUND_VARIABLE_443 BoundSet)) Bool true)
(define-fun IsInGym ((BOUND_VARIABLE_443 BoundSet)) Bool true)
(define-fun TakesTurnsScoring ((BOUND_VARIABLE_450 BoundSet) (BOUND_VARIABLE_451 BoundSet)) Bool true)
(define-fun IsIndoors ((BOUND_VARIABLE_443 BoundSet)) Bool false)
)
